num_offers = 35;
num_halls = 10;
start=[57,12,34,16,21,22,30,40,9,45,36,51,86,17,18,33,71,46,85,21,20,40,10,26,11,18,22,13,4,35,12,14,32,6,2];
end=[87,43,100,85,59,87,40,90,34,90,79,98,93,37,32,86,82,54,86,81,68,80,75,99,20,37,60,95,96,39,30,55,45,66,33];
price=[980,2691,3745,4994,2755,1449,203,531,1952,650,2870,4247,511,1671,927,1640,903,819,187,4847,2129,747,6311,6382,134,1627,2279,1531,5621,88,346,3154,1096,5177,971];
requirement=[228,350,693,480,611,884,776,360,452,952,555,280,339,671,211,501,706,984,918,999,402,873,584,716,255,387,571,715,351,864,544,513,877,206,619];
capacity=[760,404,824,646,705,563,216,214,991,862];
